p ocr 1355 1307 2808 4
1
1356
1357
1358
2
1359
3
1360
4
5
6
7
8
1361
9
10
1362
11
12
13
1363
1364
14
15
16
1365
1366
17
18
19
1367
20
1368
1369
21
1370
22
23
24
1371
25
1372
1373
1374
26
1375
27
1376
1377
28
29
1378
30
31
1379
32
33
1380
1381
1382
1383
34
1384
35
36
37
38
39
40
1385
1386
41
42
1387
1388
1389
43
1390
44
1391
1392
45
1393
46
47
1394
1395
1396
48
49
1397
50
51
1398
1399
52
53
1400
1401
1402
1403
54
1404
55
56
1405
1406
57
58
59
60
1407
1408
61
1409
62
63
1410
1411
1412
1413
64
65
1414
1415
66
67
1416
68
69
70
71
72
1417
1418
1419
1420
73
74
75
76
77
78
79
1421
80
1422
1423
81
1424
1425
82
1426
83
84
85
86
87
88
89
90
1427
91
92
93
1428
1429
1430
94
95
96
97
98
99
100
101
1431
102
1432
1433
103
1434
1435
104
1436
1437
1438
1439
105
1440
106
107
1441
1442
108
109
1443
110
1444
111
112
113
114
1445
115
116
117
1446
118
119
120
121
1447
122
123
1448
124
125
126
127
128
129
1449
130
131
1450
1451
132
133
134
135
1452
1453
1454
1455
136
1456
1457
137
138
139
1458
140
141
1459
1460
1461
142
1462
1463
1464
143
144
1465
145
1466
1467
146
1468
1469
1470
147
148
1471
1472
1473
149
150
151
152
1474
153
1475
154
155
156
1476
1477
157
158
1478
1479
1480
1481
159
1482
1483
1484
160
1485
161
1486
162
163
164
165
166
1487
1488
1489
1490
167
1491
1492
168
169
170
171
1493
1494
172
173
1495
174
1496
175
1497
1498
1499
176
1500
1501
1502
1503
1504
177
1505
1506
178
1507
1508
179
1509
180
181
182
1510
183
1511
1512
184
185
1513
1514
186
1515
187
188
1516
189
1517
190
191
192
193
1518
1519
194
1520
1521
1522
195
1523
1524
196
197
198
1525
199
1526
200
1527
201
1528
202
1529
1530
203
204
205
206
1531
1532
1533
207
208
1534
209
1535
210
211
1536
1537
212
213
1538
1539
214
215
1540
1541
216
217
1542
218
1543
1544
1545
219
1546
220
221
1547
1548
222
1549
1550
223
224
1551
225
226
227
1552
228
1553
1554
229
230
231
1555
1556
232
233
1557
234
1558
235
1559
1560
236
1561
237
1562
1563
238
1564
239
240
241
242
243
1565
1566
244
1567
1568
245
246
1569
247
248
249
250
251
252
1570
1571
253
1572
254
255
256
1573
1574
1575
257
1576
258
259
1577
260
261
1578
1579
1580
1581
262
1582
1583
1584
1585
263
264
1586
1587
1588
265
266
1589
1590
267
268
1591
269
1592
1593
270
271
1594
272
1595
1596
1597
1598
1599
1600
1601
273
274
275
1602
1603
1604
276
277
1605
278
1606
279
280
281
1607
1608
282
283
284
1609
285
1610
286
1611
287
288
289
1612
1613
290
291
1614
1615
292
293
1616
1617
294
295
1618
296
297
1619
298
299
1620
300
1621
1622
1623
301
302
1624
1625
303
304
305
1626
306
307
308
309
310
1627
311
1628
1629
312
1630
313
1631
1632
1633
314
315
316
317
1634
1635
318
319
320
1636
321
322
323
324
325
326
327
328
1637
1638
1639
1640
1641
329
330
331
1642
1643
332
1644
1645
1646
333
1647
1648
334
1649
1650
335
1651
336
337
338
339
1652
340
1653
341
342
1654
343
344
345
1655
1656
1657
1658
1659
346
1660
1661
347
348
1662
1663
1664
349
1665
1666
350
351
1667
1668
1669
1670
1671
352
1672
1673
1674
1675
353
354
1676
1677
355
1678
356
357
358
359
360
1679
1680
361
1681
1682
1683
362
1684
1685
363
364
1686
1687
1688
1689
365
1690
1691
366
1692
367
368
369
1693
370
371
372
373
374
375
376
377
1694
1695
378
1696
1697
1698
379
1699
1700
380
1701
1702
1703
381
382
383
1704
384
385
386
387
1705
388
1706
389
390
1707
391
392
393
1708
394
1709
1710
395
1711
1712
1713
396
397
1714
1715
398
399
400
401
402
403
1716
404
405
1717
406
1718
1719
407
1720
1721
408
409
410
411
412
413
1722
414
1723
1724
415
1725
416
417
1726
1727
1728
418
419
420
421
1729
422
423
1730
1731
1732
1733
1734
1735
1736
1737
1738
424
425
1739
426
1740
1741
1742
1743
1744
427
1745
428
429
430
1746
431
432
1747
1748
433
1749
434
1750
1751
1752
435
436
437
1753
1754
438
439
440
441
442
1755
443
1756
1757
444
1758
1759
1760
1761
1762
1763
445
446
447
448
1764
449
450
451
452
1765
453
454
455
1766
456
1767
457
458
1768
459
1769
1770
460
461
1771
1772
1773
1774
462
1775
463
1776
464
1777
1778
1779
465
1780
1781
466
467
468
469
1782
1783
1784
470
471
1785
472
1786
473
1787
474
475
476
477
478
479
1788
480
481
1789
1790
482
1791
483
484
1792
1793
485
1794
486
1795
487
488
1796
1797
1798
1799
489
490
491
492
493
494
1800
1801
1802
495
1803
1804
1805
496
497
498
1806
499
1807
500
1808
501
1809
502
1810
503
504
1811
505
506
1812
1813
1814
507
508
1815
509
510
1816
1817
1818
511
1819
512
513
1820
514
1821
1822
515
1823
516
1824
1825
1826
1827
517
518
519
1828
520
521
1829
522
523
524
1830
525
526
527
1831
1832
1833
528
529
1834
1835
1836
530
531
1837
532
533
534
535
1838
536
1839
537
538
539
540
541
542
543
1840
544
545
546
547
548
1841
1842
549
550
1843
1844
551
1845
1846
552
553
1847
1848
554
1849
555
556
557
1850
558
1851
559
1852
560
1853
1854
561
562
563
1855
564
565
1856
566
567
568
1857
1858
1859
569
1860
570
1861
1862
1863
1864
1865
1866
571
572
1867
1868
573
574
575
576
1869
1870
1871
577
1872
578
579
1873
1874
580
1875
581
582
583
584
1876
585
1877
1878
1879
1880
586
587
1881
588
1882
589
1883
1884
1885
590
1886
591
1887
592
593
1888
1889
594
1890
1891
1892
1893
595
596
597
598
1894
1895
1896
599
600
1897
1898
1899
601
602
1900
1901
603
604
1902
605
606
1903
1904
607
1905
608
1906
609
1907
610
611
612
1908
613
614
615
616
617
1909
1910
1911
1912
1913
1914
618
1915
1916
1917
619
1918
1919
1920
620
621
622
1921
1922
1923
623
624
625
1924
626
1925
627
628
629
630
631
1926
632
1927
1928
1929
1930
633
1931
634
635
1932
1933
636
637
1934
638
1935
639
640
641
1936
1937
1938
1939
642
643
644
645
1940
646
647
1941
1942
648
1943
649
1944
650
651
1945
1946
1947
1948
652
653
1949
1950
1951
654
655
656
657
1952
658
659
1953
1954
660
661
1955
662
1956
1957
1958
1959
663
1960
1961
664
1962
665
666
667
1963
1964
1965
1966
668
1967
669
1968
670
1969
671
672
673
674
675
1970
1971
676
677
678
679
1972
680
1973
1974
681
1975
682
683
684
1976
685
1977
686
687
1978
1979
1980
1981
688
1982
1983
1984
1985
1986
689
1987
690
691
692
693
694
695
696
1988
1989
1990
1991
697
698
1992
1993
699
1994
700
1995
1996
1997
701
702
703
704
705
706
707
708
709
1998
1999
710
711
2000
712
713
714
2001
715
2002
2003
716
717
718
2004
2005
719
720
2006
2007
721
722
2008
2009
2010
2011
723
724
2012
2013
725
726
727
728
2014
729
730
2015
2016
731
2017
732
2018
2019
733
734
2020
735
2021
2022
736
2023
2024
737
738
2025
2026
739
740
741
742
743
2027
744
2028
2029
745
2030
2031
2032
746
747
2033
2034
748
2035
2036
749
2037
750
751
752
2038
753
754
2039
755
756
757
2040
758
759
2041
760
761
2042
762
2043
2044
2045
2046
763
764
2047
765
766
767
768
2048
769
2049
770
2050
771
772
2051
2052
2053
2054
773
2055
774
2056
2057
775
2058
776
777
2059
778
2060
2061
779
780
781
782
783
784
785
2062
786
787
2063
2064
2065
788
2066
2067
2068
2069
2070
2071
2072
2073
2074
2075
789
2076
2077
790
791
2078
2079
792
793
794
795
796
797
2080
798
2081
2082
799
2083
800
801
2084
2085
2086
802
803
2087
2088
2089
804
2090
805
2091
806
2092
2093
2094
2095
2096
807
2097
2098
808
2099
2100
2101
2102
809
810
2103
2104
811
2105
812
2106
813
814
2107
815
816
817
2108
2109
2110
2111
2112
2113
818
819
2114
820
821
2115
822
823
824
2116
2117
825
826
2118
827
828
2119
2120
2121
829
830
831
832
833
834
2122
2123
2124
835
2125
836
2126
2127
837
2128
2129
2130
2131
838
839
840
841
2132
842
2133
2134
2135
843
844
2136
845
2137
846
2138
2139
847
848
2140
2141
2142
849
850
851
852
853
854
855
856
2143
2144
2145
857
2146
2147
2148
858
859
2149
2150
860
861
862
2151
2152
2153
2154
863
864
865
2155
866
867
2156
868
869
870
871
2157
2158
2159
872
873
874
2160
2161
875
2162
876
877
878
2163
879
880
2164
2165
2166
2167
2168
2169
2170
2171
2172
881
2173
2174
2175
882
883
884
885
2176
2177
886
887
2178
2179
2180
2181
888
889
890
2182
2183
891
2184
2185
892
893
894
2186
895
896
2187
897
2188
898
899
900
901
902
2189
903
904
905
2190
906
2191
907
2192
2193
2194
908
2195
909
2196
2197
910
2198
2199
2200
2201
911
912
913
2202
2203
914
915
916
917
2204
2205
2206
2207
2208
918
2209
919
2210
2211
2212
2213
920
2214
2215
921
2216
922
2217
2218
2219
2220
2221
923
2222
2223
924
2224
925
2225
926
927
928
2226
2227
2228
2229
929
2230
930
2231
931
932
933
934
935
936
937
938
939
2232
940
941
942
943
944
945
946
947
948
2233
2234
949
2235
2236
2237
950
2238
2239
951
952
2240
953
954
2241
2242
955
2243
956
957
2244
2245
958
2246
2247
959
960
961
962
2248
963
964
2249
2250
965
966
967
968
969
2251
2252
970
971
972
2253
2254
2255
973
974
2256
2257
975
976
977
978
979
2258
980
981
2259
2260
982
2261
983
2262
2263
984
2264
2265
985
2266
2267
986
987
2268
2269
988
989
2270
990
2271
991
992
993
2272
994
995
2273
996
997
998
999
1000
2274
1001
1002
2275
1003
2276
1004
1005
2277
1006
2278
2279
1007
1008
1009
2280
1010
2281
1011
1012
2282
1013
1014
2283
2284
1015
2285
2286
2287
2288
2289
1016
1017
2290
1018
2291
1019
1020
2292
2293
1021
1022
1023
1024
2294
2295
1025
2296
2297
2298
1026
2299
2300
1027
1028
2301
1029
1030
1031
2302
2303
2304
2305
2306
2307
2308
1032
2309
1033
1034
1035
2310
2311
1036
1037
1038
2312
2313
1039
2314
1040
2315
1041
1042
2316
2317
1043
1044
2318
1045
1046
2319
1047
1048
1049
1050
1051
2320
1052
1053
2321
1054
1055
1056
1057
1058
1059
1060
1061
1062
2322
1063
1064
1065
2323
1066
1067
2324
1068
2325
2326
1069
2327
1070
2328
2329
1071
2330
1072
1073
2331
2332
2333
1074
1075
1076
1077
1078
1079
2334
1080
2335
2336
2337
1081
2338
1082
2339
1083
1084
1085
1086
1087
2340
2341
2342
1088
1089
2343
1090
1091
1092
1093
1094
2344
2345
1095
2346
2347
1096
1097
1098
1099
2348
1100
1101
1102
1103
2349
1104
2350
1105
1106
2351
2352
2353
1107
2354
2355
2356
2357
2358
1108
1109
2359
2360
2361
2362
1110
2363
2364
1111
2365
2366
1112
2367
2368
2369
1113
1114
1115
1116
1117
1118
1119
1120
1121
1122
2370
2371
2372
1123
1124
1125
1126
1127
1128
2373
2374
1129
1130
1131
1132
1133
1134
1135
1136
2375
1137
2376
1138
1139
1140
1141
2377
1142
2378
1143
2379
2380
1144
2381
2382
1145
1146
2383
1147
2384
2385
2386
1148
2387
2388
2389
1149
2390
1150
1151
1152
2391
1153
1154
2392
1155
1156
1157
2393
2394
1158
2395
1159
1160
1161
2396
1162
1163
1164
1165
2397
2398
1166
1167
1168
1169
1170
1171
2399
1172
2400
2401
2402
2403
1173
2404
1174
1175
2405
1176
1177
1178
1179
1180
1181
2406
1182
2407
1183
1184
2408
2409
1185
1186
1187
1188
2410
1189
2411
2412
1190
1191
1192
2413
1193
2414
2415
1194
1195
1196
2416
2417
1197
2418
1198
1199
1200
2419
1201
2420
1202
1203
2421
1204
2422
1205
2423
1206
2424
1207
1208
1209
1210
1211
1212
1213
2425
2426
2427
1214
1215
2428
1216
1217
1218
2429
2430
1219
2431
1220
2432
2433
2434
2435
2436
1221
2437
2438
1222
1223
1224
2439
2440
2441
1225
2442
2443
1226
2444
2445
1227
2446
2447
2448
2449
1228
2450
2451
2452
2453
1229
1230
2454
1231
2455
1232
1233
2456
2457
1234
2458
1235
1236
1237
2459
1238
1239
1240
2460
2461
1241
1242
1243
1244
1245
1246
2462
2463
2464
2465
1247
2466
2467
1248
1249
2468
2469
2470
2471
2472
1250
2473
1251
2474
2475
1252
2476
2477
2478
2479
2480
1253
2481
2482
1254
2483
2484
2485
2486
2487
2488
1255
1256
2489
1257
1258
2490
1259
1260
2491
1261
2492
1262
1263
1264
1265
1266
2493
1267
2494
1268
2495
2496
2497
1269
2498
2499
2500
1270
1271
1272
1273
2501
2502
1274
1275
1276
2503
1277
1278
1279
2504
2505
2506
1280
1281
1282
2507
1283
2508
2509
2510
1284
2511
2512
1285
1286
1287
2513
2514
1288
1289
2515
1290
2516
1291
2517
1292
2518
1293
1294
2519
2520
2521
1295
1296
2522
2523
1297
1298
2524
2525
2526
1299
1300
1301
2527
2528
1302
1303
1304
1305
2529
2530
2531
1306
1307
1308
1309
2532
1310
2533
1311
2534
1312
1313
1314
1315
1316
1317
2535
2536
1318
1319
1320
1321
1322
2537
2538
2539
1323
2540
1324
2541
2542
1325
1326
1327
1328
2543
1329
1330
2544
2545
2546
2547
2548
1331
1332
1333
1334
2549
1335
1336
2550
1337
2551
1338
2552
1339
1340
1341
2553
2554
1342
2555
1343
2556
2557
1344
1345
1346
2558
2559
1347
2560
1348
1349
1350
2561
1351
1352
2562
2563
1353
2564
1354
2565
2566
2567
1355
2568
2569
2570
2571
2572
2573
2574
2575
2576
2577
2578
2579
2580
2581
2582
2583
2584
2585
2586
2587
2588
2589
2590
2591
2592
2593
2594
2595
2596
2597
2598
2599
2600
2601
2602
2603
2604
2605
2606
2607
2608
2609
2610
2611
2612
2613
2614
2615
2616
2617
2618
2619
2620
2621
2622
2623
2624
2625
2626
2627
2628
2629
2630
2631
2632
2633
2634
2635
2636
2637
2638
2639
2640
2641
2642
2643
2644
2645
2646
2647
2648
2649
2650
2651
2652
2653
2654
2655
2656
2657
2658
2659
2660
2661
2662
2 1356
2 1358
2 1360
3 1357
3 1359
3 1360
4 1359
5 1361
6 1361
8 1361
8 1362
9 1361
9 1362
10 1361
11 1362
11 1364
12 1362
12 1364
13 1363
13 1364
14 1363
14 1364
14 1365
14 1366
15 1365
16 1364
16 1365
17 1365
17 1366
17 1367
18 1365
18 1367
18 1368
19 1366
19 1367
20 1368
20 1370
21 1367
21 1370
22 1368
22 1369
22 1370
22 1371
23 1370
23 1372
24 1371
24 1372
25 1374
26 1372
26 1374
26 1375
27 1374
27 1375
28 1378
29 1378
30 1378
31 1378
32 1381
32 1382
33 1379
33 1380
34 1380
34 1381
34 1382
34 1384
35 1382
36 1384
37 1384
38 1386
39 1386
40 1385
40 1386
41 1388
41 1389
42 1385
42 1386
42 1387
42 1388
43 1387
43 1389
44 1388
44 1389
44 1390
44 1393
45 1390
45 1391
45 1393
45 1394
46 1391
46 1393
46 1394
47 1394
47 1395
48 1394
48 1395
48 1396
48 1397
49 1395
49 1397
50 1398
51 1397
51 1398
51 1399
52 1398
52 1400
52 1401
53 1399
53 1400
53 1402
54 1402
54 1403
54 1404
54 1405
55 1402
55 1404
55 1405
56 1403
56 1405
56 1406
57 1406
58 1406
58 1407
58 1408
59 1407
60 1406
60 1408
61 1407
61 1409
62 1407
62 1408
62 1410
63 1408
63 1409
63 1411
64 1411
64 1412
64 1413
64 1414
65 1411
65 1414
65 1415
66 1415
67 1414
67 1415
68 1415
68 1416
69 1416
70 1417
71 1416
71 1418
71 1419
72 1420
73 1418
74 1420
75 1419
76 1420
76 1421
79 1422
80 1421
80 1422
80 1423
80 1424
81 1422
81 1425
81 1426
82 1425
83 1426
84 1425
85 1426
86 1426
87 1427
88 1427
89 1427
91 1429
92 1427
92 1428
92 1430
93 1428
94 1429
94 1430
95 1430
96 1430
98 1431
99 1431
100 1431
101 1431
102 1432
102 1433
103 1431
103 1432
103 1433
103 1434
103 1436
104 1433
104 1434
104 1435
104 1436
104 1437
105 1437
105 1438
105 1440
105 1441
106 1440
106 1441
107 1439
107 1440
107 1441
107 1442
108 1442
108 1444
109 1442
109 1443
110 1442
110 1443
110 1444
111 1443
111 1444
111 1445
112 1445
113 1445
114 1444
115 1445
115 1446
119 1447
120 1446
120 1447
121 1447
121 1448
122 1447
122 1448
123 1447
124 1447
124 1448
125 1448
126 1449
129 1449
130 1449
130 1450
131 1450
131 1451
132 1451
133 1450
133 1452
134 1450
134 1454
135 1451
135 1453
135 1454
136 1452
136 1453
136 1455
136 1456
136 1457
137 1457
138 1456
138 1457
139 1456
140 1458
141 1458
141 1459
141 1461
142 1459
142 1460
142 1461
142 1462
142 1463
143 1462
143 1463
143 1464
143 1465
144 1467
145 1464
145 1466
145 1468
146 1466
146 1467
146 1470
147 1469
147 1470
147 1472
148 1469
148 1470
148 1472
149 1473
149 1474
150 1471
151 1473
152 1473
152 1474
152 1475
153 1474
153 1475
155 1475
155 1476
156 1476
156 1477
157 1477
157 1478
157 1480
158 1476
158 1477
158 1479
158 1481
159 1478
159 1480
159 1482
159 1484
160 1482
160 1484
160 1485
161 1484
161 1485
161 1486
162 1485
163 1485
163 1486
163 1487
164 1486
164 1488
166 1488
166 1489
167 1488
167 1489
168 1493
169 1491
169 1494
170 1491
170 1492
171 1493
172 1494
172 1496
173 1493
173 1494
173 1496
174 1494
174 1496
175 1495
175 1496
175 1497
175 1498
176 1497
176 1498
176 1500
176 1501
176 1503
177 1501
177 1503
177 1504
177 1505
177 1506
177 1507
178 1504
178 1506
178 1507
178 1508
179 1507
179 1508
179 1509
180 1507
181 1508
181 1509
181 1510
181 1511
182 1509
182 1510
182 1512
183 1510
183 1511
184 1510
184 1511
184 1512
184 1513
184 1514
185 1512
185 1513
186 1514
186 1515
186 1516
187 1513
187 1514
187 1517
188 1515
188 1516
189 1517
190 1516
190 1517
191 1517
191 1518
192 1517
192 1518
193 1519
193 1520
194 1518
194 1520
194 1521
195 1520
195 1521
195 1523
196 1523
196 1525
197 1524
197 1526
198 1524
198 1525
198 1526
199 1527
200 1525
200 1527
200 1528
201 1526
201 1528
201 1530
202 1529
202 1530
203 1528
203 1530
203 1531
204 1532
205 1530
205 1532
206 1530
206 1533
207 1532
207 1534
208 1531
208 1532
208 1534
209 1533
209 1534
209 1535
209 1536
210 1534
210 1535
211 1534
212 1536
212 1538
212 1539
213 1536
213 1537
213 1538
213 1539
214 1538
214 1539
215 1538
215 1539
215 1541
216 1541
216 1542
216 1543
217 1540
217 1542
217 1544
218 1542
218 1543
218 1545
219 1544
219 1545
220 1544
220 1545
220 1547
220 1548
221 1546
221 1549
222 1547
222 1548
222 1549
223 1550
223 1551
224 1550
224 1551
225 1550
225 1551
226 1551
226 1552
226 1553
227 1551
227 1552
227 1554
228 1552
229 1554
229 1556
230 1554
230 1556
231 1553
231 1554
231 1555
231 1556
232 1556
232 1557
233 1555
233 1556
233 1557
233 1558
234 1556
234 1557
234 1558
234 1560
235 1557
235 1558
235 1559
235 1560
235 1561
236 1561
237 1559
237 1560
237 1561
237 1562
238 1561
238 1563
238 1564
239 1563
239 1564
240 1565
241 1564
241 1565
242 1564
242 1565
243 1567
244 1565
244 1566
244 1567
244 1568
245 1566
245 1567
245 1569
246 1567
246 1569
247 1568
247 1569
249 1569
250 1569
250 1570
250 1571
252 1571
252 1572
253 1571
253 1572
254 1570
254 1572
254 1573
254 1574
255 1572
255 1575
256 1572
256 1575
257 1573
257 1575
257 1576
257 1577
258 1574
258 1576
258 1577
259 1576
260 1578
260 1579
261 1577
261 1579
261 1581
262 1578
262 1579
262 1580
262 1581
262 1582
262 1583
262 1585
263 1582
263 1583
263 1584
263 1586
263 1587
263 1588
264 1585
264 1586
265 1586
265 1588
265 1590
266 1586
266 1588
266 1589
266 1590
267 1589
267 1590
267 1591
267 1592
269 1591
269 1592
269 1593
270 1591
270 1592
270 1593
270 1595
271 1592
271 1594
272 1595
272 1596
273 1598
273 1600
273 1603
274 1603
275 1600
275 1601
276 1603
276 1606
277 1602
277 1603
278 1604
278 1605
278 1606
279 1605
279 1606
279 1607
279 1608
280 1607
281 1606
281 1608
282 1607
282 1608
283 1608
283 1609
283 1610
284 1607
284 1609
284 1610
285 1610
286 1610
287 1610
287 1611
288 1610
288 1611
288 1613
289 1613
290 1614
290 1615
291 1612
291 1613
291 1614
291 1615
292 1614
292 1615
292 1616
293 1615
293 1616
294 1616
294 1617
294 1618
295 1616
295 1618
295 1619
296 1617
297 1618
297 1619
298 1619
298 1620
299 1621
299 1622
300 1619
300 1621
300 1622
301 1621
301 1623
301 1624
301 1625
302 1621
302 1623
302 1624
302 1625
303 1625
304 1624
304 1626
305 1625
305 1626
306 1626
307 1626
307 1627
308 1627
309 1626
309 1627
309 1628
311 1628
311 1630
312 1627
312 1628
312 1630
312 1631
313 1629
313 1630
313 1631
313 1632
313 1633
314 1633
315 1633
315 1635
316 1632
316 1635
317 1633
317 1635
318 1634
318 1635
319 1635
319 1636
320 1635
321 1636
324 1636
326 1638
327 1639
328 1637
328 1639
329 1641
330 1639
330 1642
331 1640
331 1641
331 1642
331 1643
331 1644
332 1642
332 1643
332 1644
332 1645
332 1646
333 1646
333 1648
333 1649
334 1646
334 1647
334 1650
334 1651
335 1648
335 1650
335 1651
336 1650
336 1651
338 1651
338 1653
339 1651
339 1652
340 1652
340 1653
341 1652
341 1653
341 1654
342 1653
343 1654
343 1655
344 1654
344 1655
345 1654
345 1657
345 1658
346 1656
346 1658
346 1659
346 1660
347 1659
347 1660
347 1662
347 1663
347 1664
348 1661
348 1664
349 1662
349 1664
349 1665
349 1666
350 1664
350 1665
350 1666
350 1668
351 1666
351 1667
351 1670
352 1668
352 1670
352 1671
352 1674
352 1675
353 1673
353 1677
354 1673
354 1676
354 1677
354 1678
355 1676
355 1677
356 1678
357 1677
357 1678
358 1678
359 1679
360 1679
360 1680
360 1681
361 1679
361 1680
361 1682
362 1681
362 1683
362 1684
363 1684
363 1686
363 1687
363 1688
364 1684
364 1686
365 1686
365 1687
365 1688
365 1689
365 1690
365 1691
366 1690
367 1690
367 1691
368 1691
368 1693
369 1692
369 1693
370 1693
371 1693
372 1693
373 1693
374 1694
375 1694
376 1694
377 1695
378 1694
378 1696
378 1697
379 1698
379 1699
380 1698
380 1700
380 1703
381 1701
381 1702
381 1703
381 1704
382 1702
382 1704
384 1705
385 1704
385 1705
386 1704
386 1706
387 1704
387 1705
388 1705
388 1706
389 1705
389 1706
390 1705
390 1706
390 1707
391 1707
391 1708
392 1707
392 1708
393 1707
393 1708
393 1709
394 1708
394 1709
395 1708
395 1709
395 1710
395 1711
395 1712
395 1713
396 1713
396 1715
397 1711
397 1712
397 1714
398 1715
399 1715
400 1715
401 1715
401 1716
402 1716
403 1717
404 1716
404 1718
405 1717
405 1719
406 1717
406 1718
407 1717
407 1719
407 1721
408 1719
408 1720
409 1721
410 1720
411 1722
412 1723
413 1722
413 1724
414 1722
414 1725
415 1722
415 1724
415 1725
415 1726
416 1723
416 1725
416 1727
417 1725
417 1727
417 1728
418 1726
418 1728
418 1729
420 1728
421 1728
421 1729
422 1729
422 1730
423 1731
423 1732
423 1733
424 1735
424 1736
424 1739
424 1740
425 1737
425 1738
425 1739
426 1741
426 1743
427 1742
427 1743
428 1744
428 1745
428 1746
429 1744
429 1745
429 1746
430 1746
430 1747
432 1746
433 1747
433 1748
433 1749
433 1750
433 1751
434 1747
434 1749
434 1750
434 1751
435 1751
435 1754
436 1751
436 1752
436 1753
437 1753
437 1754
438 1753
439 1754
440 1753
440 1754
440 1755
441 1755
441 1756
443 1755
443 1756
443 1758
444 1755
444 1756
444 1757
444 1758
444 1759
444 1761
445 1762
445 1763
446 1762
446 1764
447 1764
448 1763
448 1764
449 1765
450 1764
451 1764
451 1765
453 1765
453 1766
454 1765
454 1766
455 1766
455 1767
456 1766
457 1767
457 1769
458 1766
458 1767
458 1769
459 1768
459 1769
460 1769
461 1769
461 1770
461 1771
461 1772
461 1773
462 1773
462 1774
462 1775
463 1776
463 1777
463 1778
464 1775
464 1776
464 1778
465 1777
465 1778
465 1779
465 1781
466 1780
466 1782
467 1780
468 1781
468 1784
469 1783
469 1784
470 1783
470 1784
470 1785
471 1783
471 1784
471 1785
471 1786
472 1786
473 1785
473 1786
473 1787
474 1786
475 1786
476 1787
476 1788
477 1787
477 1788
479 1789
481 1788
481 1789
481 1790
481 1791
482 1789
482 1791
483 1789
483 1791
483 1792
483 1793
484 1790
484 1791
484 1793
485 1792
485 1793
485 1794
485 1795
486 1792
486 1793
486 1796
487 1794
487 1797
487 1798
488 1795
488 1798
489 1796
489 1797
490 1799
491 1800
492 1799
493 1801
494 1801
494 1802
495 1800
497 1803
497 1805
497 1806
498 1804
498 1805
498 1807
499 1807
499 1808
500 1806
500 1808
500 1809
501 1807
501 1809
502 1809
503 1811
504 1810
504 1811
504 1812
505 1811
505 1814
506 1811
506 1812
506 1814
507 1814
507 1815
508 1812
508 1813
508 1816
509 1814
509 1815
509 1816
509 1818
510 1816
511 1819
512 1817
512 1818
512 1819
512 1820
512 1821
513 1818
514 1821
514 1822
515 1820
515 1821
515 1823
515 1825
516 1821
516 1822
516 1823
516 1824
516 1826
517 1824
517 1827
518 1826
518 1827
519 1828
519 1829
520 1829
521 1828
521 1829
522 1829
523 1829
523 1830
524 1830
525 1831
525 1832
527 1830
527 1831
527 1832
528 1831
528 1832
528 1834
528 1836
529 1831
529 1833
529 1836
530 1835
530 1836
531 1834
531 1837
532 1837
532 1838
533 1837
533 1838
534 1838
534 1839
536 1838
536 1839
537 1839
538 1838
539 1839
540 1839
540 1840
541 1840
542 1840
544 1840
545 1840
545 1841
546 1840
546 1841
546 1842
547 1840
548 1842
549 1841
550 1842
550 1843
550 1844
550 1845
551 1844
551 1846
552 1844
552 1845
552 1847
552 1848
553 1845
553 1848
554 1847
554 1848
554 1849
555 1848
555 1849
556 1848
556 1850
557 1849
557 1850
558 1850
558 1851
559 1850
559 1851
559 1852
559 1854
560 1851
560 1852
560 1853
560 1854
563 1854
563 1855
564 1855
564 1856
565 1856
566 1855
566 1856
568 1856
568 1857
568 1858
568 1859
569 1857
569 1860
569 1861
569 1862
570 1858
570 1860
570 1862
571 1863
571 1867
572 1864
572 1865
572 1866
572 1867
572 1868
573 1868
574 1868
574 1870
575 1867
575 1870
576 1868
576 1869
576 1870
577 1869
577 1870
577 1872
577 1873
578 1872
578 1874
579 1871
579 1872
579 1874
579 1875
580 1874
580 1875
581 1874
581 1875
581 1876
582 1875
583 1876
583 1877
584 1875
584 1876
585 1876
585 1878
586 1877
586 1879
586 1882
587 1880
587 1881
588 1881
588 1882
588 1883
588 1884
589 1882
589 1884
589 1885
590 1883
590 1884
590 1885
590 1886
590 1887
591 1885
591 1886
592 1886
592 1888
592 1889
593 1887
593 1889
593 1890
594 1888
594 1890
594 1891
594 1892
595 1892
595 1894
596 1891
596 1892
596 1894
597 1892
597 1895
598 1896
599 1894
599 1896
599 1897
599 1899
600 1895
600 1896
600 1898
600 1899
601 1897
601 1898
601 1899
601 1900
601 1901
602 1900
602 1901
603 1902
604 1900
604 1901
604 1903
605 1901
605 1902
605 1903
605 1904
606 1905
607 1905
607 1906
608 1904
608 1907
609 1905
610 1906
610 1907
610 1908
611 1906
611 1907
611 1908
613 1908
614 1908
616 1908
616 1910
617 1909
617 1910
617 1912
618 1912
618 1913
618 1916
618 1917
619 1915
619 1916
619 1917
619 1918
619 1919
619 1920
620 1919
620 1920
620 1921
621 1918
621 1922
622 1919
622 1921
622 1922
623 1922
624 1921
624 1922
624 1923
625 1924
625 1925
626 1924
626 1925
627 1924
628 1924
629 1925
629 1926
630 1925
631 1926
631 1927
631 1928
632 1926
632 1927
632 1929
633 1930
633 1931
634 1929
634 1930
634 1932
635 1930
635 1931
635 1933
636 1932
636 1934
636 1935
637 1933
637 1934
637 1935
638 1934
638 1935
639 1934
639 1935
639 1937
640 1938
641 1937
641 1939
642 1937
642 1938
642 1940
643 1938
643 1939
643 1940
645 1941
646 1940
646 1942
647 1940
647 1941
647 1943
648 1944
649 1941
649 1942
649 1944
649 1945
650 1943
650 1944
650 1945
651 1945
651 1948
652 1945
652 1947
652 1948
652 1949
652 1951
653 1946
653 1949
653 1950
654 1950
654 1952
655 1949
655 1952
656 1951
656 1952
657 1951
657 1953
658 1954
659 1952
660 1953
660 1955
660 1956
661 1953
661 1955
662 1956
662 1957
662 1959
663 1958
663 1959
663 1960
663 1962
664 1959
664 1961
664 1962
665 1960
666 1965
667 1963
667 1965
667 1966
668 1964
668 1967
668 1968
669 1966
670 1968
670 1969
671 1968
673 1969
673 1971
674 1970
674 1971
675 1971
676 1970
676 1971
677 1971
677 1972
678 1971
678 1972
679 1973
679 1974
680 1972
680 1973
680 1974
681 1973
682 1975
683 1974
683 1976
683 1977
684 1975
684 1976
685 1976
685 1977
686 1976
686 1977
686 1978
686 1980
687 1976
687 1977
687 1979
687 1981
688 1978
688 1979
688 1980
688 1981
688 1982
688 1983
688 1984
689 1985
689 1986
690 1985
690 1986
691 1987
692 1987
694 1988
695 1988
695 1990
696 1989
697 1988
697 1989
697 1991
697 1992
697 1993
698 1990
698 1992
698 1994
699 1993
699 1995
700 1992
700 1993
701 1996
702 1996
703 1996
703 1997
707 1998
708 1998
709 1998
709 1999
711 1998
711 2000
712 2000
713 2000
713 2002
714 2002
715 2001
715 2002
716 2001
716 2004
717 2002
717 2003
717 2004
717 2005
718 2002
718 2004
719 2005
719 2006
720 2005
721 2008
721 2009
721 2010
722 2006
722 2010
723 2008
723 2009
723 2010
723 2011
725 2013
726 2014
727 2012
727 2013
727 2014
729 2014
729 2015
730 2014
730 2016
730 2017
731 2017
731 2018
731 2019
732 2017
732 2018
732 2019
733 2018
733 2020
734 2018
734 2019
734 2020
735 2019
735 2021
735 2023
736 2022
736 2023
737 2024
737 2025
737 2026
738 2024
738 2025
740 2025
740 2026
740 2027
742 2028
743 2027
743 2028
744 2027
744 2030
745 2027
745 2029
745 2030
745 2031
745 2032
746 2031
746 2032
746 2033
747 2030
747 2034
747 2035
748 2033
748 2034
748 2035
748 2036
748 2037
749 2035
749 2036
749 2037
750 2037
750 2038
751 2036
751 2038
752 2037
752 2038
753 2038
753 2039
755 2038
755 2040
756 2039
756 2040
757 2039
757 2041
758 2040
758 2041
759 2040
760 2040
760 2041
760 2042
760 2043
761 2041
761 2043
761 2044
762 2042
762 2045
763 2044
763 2045
763 2046
764 2044
764 2047
765 2048
766 2047
767 2049
768 2047
768 2049
769 2050
770 2049
770 2050
770 2051
771 2050
771 2052
771 2053
772 2050
772 2053
773 2051
773 2052
773 2053
773 2055
773 2056
773 2057
774 2053
774 2055
774 2056
774 2057
775 2056
776 2056
776 2059
777 2057
777 2058
777 2059
777 2060
778 2058
778 2059
778 2061
779 2059
779 2061
781 2060
781 2061
782 2062
784 2062
785 2062
785 2063
786 2062
786 2064
787 2062
787 2063
787 2064
788 2063
788 2066
789 2072
789 2074
789 2075
789 2076
789 2077
790 2076
791 2076
791 2077
791 2078
791 2079
792 2078
793 2078
794 2079
794 2080
795 2079
795 2080
796 2080
797 2081
798 2081
798 2083
799 2082
799 2083
799 2084
800 2083
800 2084
801 2082
801 2083
802 2084
802 2088
803 2084
803 2086
803 2087
803 2088
803 2089
804 2087
804 2088
804 2090
805 2088
805 2092
805 2093
806 2093
806 2094
807 2094
807 2095
807 2096
808 2096
808 2097
808 2098
808 2099
808 2101
809 2103
810 2100
810 2101
810 2102
810 2103
810 2104
810 2105
811 2103
811 2105
811 2106
812 2103
812 2105
813 2105
813 2106
813 2107
815 2106
815 2107
815 2109
816 2107
816 2110
817 2109
817 2111
818 2110
818 2112
818 2114
819 2112
819 2114
820 2113
820 2114
820 2115
821 2114
822 2114
822 2115
822 2117
823 2116
823 2117
824 2115
824 2117
825 2116
826 2118
826 2119
828 2118
828 2119
829 2119
829 2120
830 2119
831 2121
833 2122
833 2124
834 2122
834 2124
835 2122
835 2123
835 2124
835 2127
836 2125
836 2126
836 2127
836 2128
837 2127
837 2128
837 2129
837 2130
838 2129
838 2131
838 2132
839 2131
839 2132
840 2132
841 2131
841 2132
842 2133
842 2134
842 2135
843 2134
843 2135
843 2137
844 2133
844 2136
844 2137
845 2136
845 2138
846 2137
846 2138
847 2140
847 2141
848 2138
848 2141
848 2142
849 2141
850 2141
850 2142
852 2142
853 2143
856 2143
856 2144
856 2145
857 2143
857 2144
857 2146
857 2147
858 2147
858 2148
858 2149
858 2150
859 2146
859 2147
859 2149
859 2150
860 2152
861 2149
861 2151
861 2153
862 2150
862 2153
863 2153
863 2155
864 2152
864 2155
865 2153
865 2154
865 2156
866 2156
867 2155
867 2156
868 2155
869 2157
870 2156
870 2157
870 2158
871 2159
872 2158
872 2160
873 2158
873 2161
874 2160
874 2162
875 2160
875 2162
876 2161
876 2162
876 2163
877 2162
877 2163
878 2162
878 2163
878 2164
879 2163
879 2166
880 2166
880 2167
881 2171
881 2173
881 2174
881 2175
882 2174
883 2174
883 2175
884 2174
884 2176
886 2179
886 2180
887 2178
887 2180
888 2179
889 2179
889 2180
889 2182
890 2180
890 2182
890 2183
890 2184
891 2183
891 2185
892 2184
893 2186
894 2184
894 2185
894 2186
894 2187
895 2186
896 2186
896 2187
896 2188
897 2187
897 2188
898 2188
899 2188
899 2189
900 2189
902 2189
903 2189
903 2190
904 2190
906 2190
906 2191
906 2192
906 2193
907 2191
907 2192
907 2193
908 2195
908 2196
909 2193
909 2194
909 2197
910 2195
910 2200
911 2199
911 2200
911 2202
912 2199
912 2202
913 2201
913 2202
914 2203
915 2203
915 2204
915 2205
916 2202
916 2204
917 2203
917 2205
918 2205
918 2209
918 2210
918 2211
919 2207
919 2209
919 2210
919 2213
920 2210
920 2213
920 2214
920 2216
921 2213
921 2214
921 2215
921 2216
921 2218
922 2216
922 2219
923 2218
923 2221
923 2222
923 2223
923 2224
924 2222
924 2224
925 2222
925 2224
925 2225
926 2224
926 2225
927 2224
927 2225
927 2226
927 2227
928 2227
928 2228
929 2227
929 2229
929 2230
929 2231
930 2228
930 2229
932 2230
932 2231
933 2231
934 2231
936 2232
937 2232
938 2232
940 2232
941 2232
943 2232
945 2233
946 2233
948 2233
948 2235
949 2233
949 2234
949 2236
949 2237
950 2236
950 2237
950 2239
951 2238
951 2239
951 2240
952 2238
952 2239
952 2240
952 2241
953 2240
954 2241
954 2242
955 2242
955 2243
956 2241
956 2242
957 2242
957 2244
957 2245
957 2246
958 2244
958 2246
958 2247
959 2245
959 2248
960 2248
961 2246
961 2247
961 2248
963 2249
963 2250
964 2248
964 2249
965 2250
966 2249
966 2250
966 2251
967 2250
967 2251
968 2252
970 2251
970 2254
971 2252
971 2253
972 2251
972 2252
972 2253
972 2255
973 2253
973 2256
973 2257
974 2253
974 2255
974 2256
974 2257
976 2256
976 2258
977 2256
977 2258
978 2257
979 2258
979 2259
980 2260
981 2259
981 2260
982 2259
982 2260
982 2261
983 2259
983 2260
983 2261
984 2261
984 2262
984 2263
984 2264
984 2266
985 2265
985 2266
985 2267
986 2265
986 2267
986 2268
987 2268
988 2268
988 2270
989 2269
989 2271
991 2270
991 2272
992 2270
992 2272
993 2271
994 2272
994 2273
995 2272
996 2272
996 2273
997 2274
999 2274
1001 2274
1001 2275
1001 2276
1002 2274
1002 2275
1003 2274
1003 2276
1004 2277
1005 2277
1006 2278
1006 2279
1007 2278
1008 2278
1008 2279
1009 2278
1009 2281
1010 2281
1010 2282
1012 2280
1012 2282
1013 2281
1013 2283
1013 2284
1014 2282
1015 2285
1015 2287
1015 2288
1016 2286
1016 2289
1016 2291
1017 2287
1017 2289
1017 2290
1017 2291
1018 2291
1018 2292
1019 2291
1019 2292
1019 2293
1020 2291
1020 2292
1021 2292
1022 2292
1022 2294
1022 2295
1023 2292
1023 2293
1023 2294
1023 2295
1025 2294
1025 2295
1025 2297
1026 2297
1026 2298
1026 2300
1027 2301
1028 2301
1029 2302
1030 2301
1030 2302
1030 2303
1031 2305
1032 2306
1032 2307
1032 2309
1033 2308
1033 2309
1033 2310
1034 2311
1036 2310
1036 2313
1037 2310
1038 2310
1038 2311
1038 2313
1039 2312
1039 2314
1039 2315
1040 2312
1040 2313
1040 2314
1040 2316
1041 2317
1042 2315
1042 2316
1042 2317
1043 2318
1044 2318
1044 2319
1045 2318
1045 2319
1046 2318
1046 2319
1047 2318
1048 2319
1048 2320
1049 2319
1050 2319
1051 2321
1052 2320
1052 2321
1053 2320
1054 2320
1054 2321
1055 2321
1056 2321
1059 2322
1062 2322
1063 2322
1063 2323
1064 2322
1065 2322
1066 2323
1066 2324
1066 2325
1067 2323
1068 2324
1068 2325
1068 2327
1069 2327
1069 2329
1070 2326
1070 2327
1070 2328
1070 2330
1071 2328
1072 2328
1072 2329
1072 2330
1072 2331
1073 2330
1073 2332
1074 2331
1074 2333
1075 2331
1076 2333
1078 2334
1078 2335
1079 2334
1080 2334
1080 2336
1080 2337
1081 2335
1081 2336
1081 2338
1082 2336
1082 2337
1083 2338
1084 2339
1084 2340
1086 2339
1086 2340
1086 2341
1086 2342
1088 2340
1088 2343
1089 2340
1089 2341
1090 2342
1091 2343
1091 2344
1092 2343
1092 2344
1092 2345
1094 2346
1095 2347
1096 2345
1096 2348
1097 2346
1098 2348
1099 2348
1100 2348
1101 2348
1101 2349
1102 2350
1103 2348
1103 2349
1103 2350
1104 2349
1104 2350
1104 2351
1105 2350
1105 2351
1105 2352
1106 2350
1106 2353
1107 2353
1107 2354
1107 2355
1107 2356
1107 2357
1108 2356
1108 2357
1108 2359
1109 2356
1109 2358
1109 2360
1109 2361
1109 2362
1110 2359
1110 2361
1110 2362
1110 2363
1111 2362
1111 2364
1111 2365
1111 2366
1111 2367
1112 2364
1112 2368
1114 2367
1115 2368
1121 2370
1121 2372
1122 2370
1122 2372
1123 2372
1124 2371
1124 2372
1125 2372
1125 2373
1127 2373
1128 2373
1128 2374
1129 2374
1130 2373
1130 2374
1131 2373
1133 2375
1135 2375
1137 2375
1137 2376
1138 2376
1138 2377
1139 2375
1139 2377
1140 2377
1141 2376
1141 2378
1142 2379
1142 2380
1143 2377
1143 2378
1143 2381
1144 2380
1144 2381
1144 2382
1145 2380
1145 2383
1146 2381
1146 2382
1146 2383
1146 2384
1147 2382
1147 2383
1147 2384
1147 2385
1147 2386
1148 2384
1148 2386
1148 2388
1149 2387
1149 2388
1149 2389
1150 2389
1150 2390
1150 2391
1151 2390
1152 2390
1153 2391
1153 2392
1154 2391
1155 2392
1156 2392
1156 2393
1157 2393
1157 2394
1158 2394
1158 2395
1159 2394
1159 2395
1160 2394
1160 2395
1160 2396
1161 2396
1162 2397
1163 2396
1163 2397
1163 2398
1166 2397
1167 2397
1167 2398
1168 2399
1169 2399
1170 2400
1171 2400
1172 2400
1173 2400
1173 2401
1173 2404
1174 2404
1174 2405
1176 2405
1179 2406
1180 2406
1180 2407
1181 2407
1182 2408
1183 2406
1183 2407
1183 2408
1184 2407
1184 2409
1185 2408
1185 2409
1186 2408
1187 2411
1188 2409
1188 2410
1188 2412
1189 2411
1190 2410
1190 2411
1190 2412
1190 2413
1191 2414
1192 2412
1192 2415
1193 2414
1194 2413
1194 2417
1195 2417
1196 2415
1196 2418
1198 2416
1198 2417
1198 2419
1199 2417
1199 2419
1200 2418
1200 2419
1200 2420
1201 2419
1201 2421
1202 2420
1202 2422
1203 2419
1203 2422
1204 2420
1205 2421
1205 2422
1205 2423
1205 2424
1206 2422
1206 2424
1207 2423
1207 2424
1209 2424
1210 2424
1211 2425
1212 2426
1212 2427
1213 2427
1214 2427
1214 2428
1215 2425
1215 2426
1215 2428
1216 2427
1216 2428
1217 2428
1217 2429
1217 2430
1218 2428
1218 2430
1218 2431
1219 2431
1220 2429
1220 2430
1220 2431
1220 2433
1220 2435
1221 2433
1221 2434
1221 2436
1221 2437
1222 2436
1222 2437
1222 2438
1222 2439
1222 2440
1223 2438
1223 2440
1224 2440
1225 2441
1225 2443
1226 2441
1226 2443
1226 2444
1226 2446
1227 2445
1227 2447
1227 2448
1228 2446
1228 2450
1229 2450
1229 2454
1230 2452
1230 2453
1230 2454
1231 2454
1231 2456
1232 2454
1232 2455
1232 2456
1233 2456
1233 2458
1234 2458
1235 2456
1235 2457
1235 2458
1236 2458
1239 2459
1239 2460
1239 2461
1240 2459
1240 2460
1240 2461
1241 2461
1243 2460
1243 2461
1244 2461
1245 2462
1245 2463
1245 2464
1246 2465
1247 2462
1247 2464
1247 2465
1247 2467
1248 2466
1248 2467
1248 2468
1248 2470
1249 2466
1249 2469
1249 2471
1250 2469
1250 2470
1250 2472
1250 2474
1251 2472
1251 2473
1251 2474
1252 2473
1252 2475
1252 2478
1253 2477
1253 2478
1253 2480
1253 2481
1253 2483
1254 2480
1254 2481
1254 2482
1254 2484
1255 2485
1255 2487
1256 2486
1256 2488
1256 2489
1256 2490
1257 2490
1258 2489
1258 2490
1259 2489
1259 2490
1260 2492
1261 2490
1261 2491
1262 2492
1263 2492
1264 2492
1264 2493
1265 2492
1265 2493
1265 2494
1266 2493
1268 2493
1269 2496
1269 2497
1269 2498
1269 2499
1270 2500
1271 2498
1271 2500
1271 2501
1271 2502
1272 2500
1272 2501
1273 2501
1274 2502
1274 2503
1275 2501
1276 2502
1276 2503
1277 2503
1277 2505
1278 2503
1278 2504
1279 2503
1279 2504
1279 2506
1280 2505
1280 2506
1280 2507
1281 2505
1281 2508
1282 2505
1282 2507
1282 2508
1283 2508
1283 2509
1284 2508
1284 2509
1285 2510
1285 2513
1285 2514
1286 2511
1286 2512
1286 2514
1287 2514
1288 2514
1288 2515
1289 2516
1290 2516
1291 2515
1292 2517
1292 2518
1292 2519
1293 2517
1293 2521
1294 2517
1294 2518
1294 2519
1294 2520
1295 2519
1295 2521
1295 2522
1295 2523
1296 2520
1296 2521
1296 2522
1296 2523
1297 2523
1297 2526
1298 2523
1298 2525
1298 2526
1299 2526
1299 2527
1299 2528
1300 2526
1300 2527
1301 2526
1301 2527
1302 2527
1302 2528
1302 2529
1303 2530
1304 2527
1304 2529
1305 2531
1306 2530
1307 2530
1307 2532
1308 2532
1309 2532
1309 2533
1310 2532
1310 2534
1311 2533
1311 2534
1312 2533
1312 2534
1313 2533
1313 2534
1315 2535
1315 2536
1316 2535
1317 2535
1319 2535
1320 2536
1321 2536
1321 2537
1321 2539
1322 2538
1322 2539
1323 2538
1323 2539
1323 2540
1323 2541
1323 2542
1324 2538
1324 2542
1325 2540
1325 2543
1326 2541
1326 2543
1327 2542
1328 2543
1329 2545
1330 2546
1331 2545
1331 2546
1332 2546
1332 2547
1332 2549
1333 2549
1334 2549
1334 2550
1335 2549
1335 2550
1335 2551
1336 2550
1337 2550
1337 2552
1338 2550
1338 2552
1339 2551
1339 2552
1340 2554
1341 2553
1341 2555
1342 2553
1342 2556
1342 2557
1343 2556
1343 2557
1344 2557
1345 2556
1346 2556
1346 2558
1346 2560
1347 2559
1348 2559
1348 2561
1349 2559
1349 2560
1349 2561
1350 2560
1350 2561
1350 2562
1351 2561
1351 2563
1352 2561
1352 2562
1352 2564
1353 2562
1353 2565
1353 2566
1354 2563
1354 2566
1355 2566
1355 2567
1355 2568
1355 2569
1355 2570